NAME = SAfile175,
TOURSIZE = 175,
LENGTH = 21414,
92,170,53,64,159,105,50,103,167,123,102,144,80,172,32,157,82,44,97,136,161,47,37,38,113,74,7,87,154,68,166,45,29,133,116,9,15,25,139,62,83,6,42,58,160,100,65,23,168,28,169,147,150,14,57,155,125,8,124,175,60,142,3,30,56,86,76,111,88,90,158,94,135,152,141,54,95,143,130,63,145,96,52,138,115,43,20,109,4,174,162,78,34,153,140,99,132,36,21,41,134,91,71,81,112,104,151,84,85,149,70,24,173,11,59,128,66,10,77,122,18,33,164,126,165,22,121,12,107,51,106,55,129,40,27,1,131,101,73,13,127,108,75,61,79,156,98,67,163,117,35,16,146,2,137,17,110,171,119,46,89,148,49,118,72,26,5,39,120,19,93,69,31,114,48